MITM/Lblock/Solution/LB_r11.sol
# Objective value = 14
IF_0_r0_TypeZ 0
IF_1_r0_TypeZ 0
IF_2_r0_TypeZ 0
IF_3_r0_TypeZ 0
IF_4_r0_TypeZ 0
IF_5_r0_TypeZ 0
IF_6_r0_TypeZ 0
IF_7_r0_TypeZ 0
IF_0_r1_TypeZ 1
IF_1_r1_TypeZ 0
IF_2_r1_TypeZ 0
IF_3_r1_TypeZ 0
IF_4_r1_TypeZ 0
IF_5_r1_TypeZ 0
IF_6_r1_TypeZ 0
IF_7_r1_TypeZ 0
IF_0_r2_TypeZ 0
IF_1_r2_TypeZ 0
IF_2_r2_TypeZ 1
IF_3_r2_TypeZ 0
IF_4_r2_TypeZ 0
IF_5_r2_TypeZ 0
IF_6_r2_TypeZ 0
IF_7_r2_TypeZ 0
IF_0_r3_TypeZ 0
IF_1_r3_TypeZ 0
IF_2_r3_TypeZ 0
IF_3_r3_TypeZ 1
IF_4_r3_TypeZ 0
IF_5_r3_TypeZ 0
IF_6_r3_TypeZ 1
IF_7_r3_TypeZ 0
IF_0_r4_TypeZ 1
IF_1_r4_TypeZ 0
IF_2_r4_TypeZ 0
IF_3_r4_TypeZ 0
IF_4_r4_TypeZ 0
IF_5_r4_TypeZ 0
IF_6_r4_TypeZ 0
IF_7_r4_TypeZ 1
IF_0_r5_TypeZ 0
IF_1_r5_TypeZ 1
IF_2_r5_TypeZ 0
IF_3_r5_TypeZ 0
IF_4_r5_TypeZ 0
IF_5_r5_TypeZ 1
IF_6_r5_TypeZ 0
IF_7_r5_TypeZ 0
IF_0_r6_TypeZ 1
IF_1_r6_TypeZ 0
IF_2_r6_TypeZ 0
IF_3_r6_TypeZ 0
IF_4_r6_TypeZ 0
IF_5_r6_TypeZ 0
IF_6_r6_TypeZ 0
IF_7_r6_TypeZ 1
IF_0_r7_TypeZ 1
IF_1_r7_TypeZ 0
IF_2_r7_TypeZ 1
IF_3_r7_TypeZ 0
IF_4_r7_TypeZ 0
IF_5_r7_TypeZ 0
IF_6_r7_TypeZ 0
IF_7_r7_TypeZ 0
IF_0_r8_TypeZ 0
IF_1_r8_TypeZ 0
IF_2_r8_TypeZ 1
IF_3_r8_TypeZ 0
IF_4_r8_TypeZ 0
IF_5_r8_TypeZ 0
IF_6_r8_TypeZ 0
IF_7_r8_TypeZ 0
IF_0_r9_TypeZ 0
IF_1_r9_TypeZ 0
IF_2_r9_TypeZ 0
IF_3_r9_TypeZ 1
IF_4_r9_TypeZ 0
IF_5_r9_TypeZ 0
IF_6_r9_TypeZ 0
IF_7_r9_TypeZ 0
IF_0_r10_TypeZ 0
IF_1_r10_TypeZ 0
IF_2_r10_TypeZ 0
IF_3_r10_TypeZ 0
IF_4_r10_TypeZ 0
IF_5_r10_TypeZ 0
IF_6_r10_TypeZ 0
IF_7_r10_TypeZ 0
L_0_r0_TypeX 0
IF_0_r0_TypeX 0
R_0_r1_TypeX 0
L_1_r0_TypeX 0
IF_1_r0_TypeX 0
R_1_r1_TypeX 0
L_2_r0_TypeX 0
IF_2_r0_TypeX 0
R_2_r1_TypeX 0
L_3_r0_TypeX 0
IF_3_r0_TypeX 0
R_3_r1_TypeX 0
L_4_r0_TypeX 0
IF_4_r0_TypeX 0
R_4_r1_TypeX 0
L_5_r0_TypeX 0
IF_5_r0_TypeX 0
R_5_r1_TypeX 0
L_6_r0_TypeX 0
IF_6_r0_TypeX 0
R_6_r1_TypeX 0
L_7_r0_TypeX 0
IF_7_r0_TypeX 0
R_7_r1_TypeX 0
OL_2_r0_TypeX 0
OL_0_r0_TypeX 0
OL_3_r0_TypeX 0
OL_1_r0_TypeX 0
OL_6_r0_TypeX 0
OL_4_r0_TypeX 0
OL_7_r0_TypeX 0
OL_5_r0_TypeX 0
R_2_r0_TypeX 1
L_0_r1_TypeX 1
R_3_r0_TypeX 0
L_1_r1_TypeX 0
R_4_r0_TypeX 0
L_2_r1_TypeX 0
R_5_r0_TypeX 0
L_3_r1_TypeX 0
R_6_r0_TypeX 0
L_4_r1_TypeX 0
R_7_r0_TypeX 0
L_5_r1_TypeX 0
R_0_r0_TypeX 0
L_6_r1_TypeX 0
R_1_r0_TypeX 0
L_7_r1_TypeX 0
IF_0_r0_TypeY 1
R_0_r1_TypeY 1
L_0_r0_TypeY 1
IF_1_r0_TypeY 1
R_1_r1_TypeY 1
L_1_r0_TypeY 1
IF_2_r0_TypeY 1
R_2_r1_TypeY 1
L_2_r0_TypeY 1
IF_3_r0_TypeY 1
R_3_r1_TypeY 1
L_3_r0_TypeY 1
IF_4_r0_TypeY 1
R_4_r1_TypeY 1
L_4_r0_TypeY 1
IF_5_r0_TypeY 1
R_5_r1_TypeY 1
L_5_r0_TypeY 1
IF_6_r0_TypeY 1
R_6_r1_TypeY 1
L_6_r0_TypeY 1
IF_7_r0_TypeY 1
R_7_r1_TypeY 1
L_7_r0_TypeY 1
OL_2_r0_TypeY 1
OL_0_r0_TypeY 1
OL_3_r0_TypeY 1
OL_1_r0_TypeY 1
OL_6_r0_TypeY 1
OL_4_r0_TypeY 1
OL_7_r0_TypeY 1
OL_5_r0_TypeY 1
L_0_r1_TypeY 1
R_2_r0_TypeY 1
L_1_r1_TypeY 1
R_3_r0_TypeY 1
L_2_r1_TypeY 1
R_4_r0_TypeY 1
L_3_r1_TypeY 1
R_5_r0_TypeY 1
L_4_r1_TypeY 1
R_6_r0_TypeY 1
L_5_r1_TypeY 1
R_7_r0_TypeY 1
L_6_r1_TypeY 1
R_0_r0_TypeY 1
L_7_r1_TypeY 1
R_1_r0_TypeY 1
L_0_r0_TypeZ 0
L_1_r0_TypeZ 0
L_2_r0_TypeZ 0
L_3_r0_TypeZ 0
L_4_r0_TypeZ 0
L_5_r0_TypeZ 0
L_6_r0_TypeZ 0
L_7_r0_TypeZ 0
R_0_r0_TypeZ 0
R_1_r0_TypeZ 0
R_2_r0_TypeZ 1
R_3_r0_TypeZ 0
R_4_r0_TypeZ 0
R_5_r0_TypeZ 0
R_6_r0_TypeZ 0
R_7_r0_TypeZ 0
OL_0_r0_TypeZ 0
OL_1_r0_TypeZ 0
OL_2_r0_TypeZ 0
OL_3_r0_TypeZ 0
OL_4_r0_TypeZ 0
OL_5_r0_TypeZ 0
OL_6_r0_TypeZ 0
OL_7_r0_TypeZ 0
IF_0_r1_TypeX 1
R_0_r2_TypeX 1
IF_1_r1_TypeX 0
R_1_r2_TypeX 0
IF_2_r1_TypeX 0
R_2_r2_TypeX 0
IF_3_r1_TypeX 0
R_3_r2_TypeX 0
IF_4_r1_TypeX 0
R_4_r2_TypeX 0
IF_5_r1_TypeX 0
R_5_r2_TypeX 0
IF_6_r1_TypeX 0
R_6_r2_TypeX 0
IF_7_r1_TypeX 0
R_7_r2_TypeX 0
OL_2_r1_TypeX 1
OL_0_r1_TypeX 0
OL_3_r1_TypeX 0
OL_1_r1_TypeX 0
OL_6_r1_TypeX 0
OL_4_r1_TypeX 0
OL_7_r1_TypeX 0
OL_5_r1_TypeX 0
L_0_r2_TypeX 0
L_1_r2_TypeX 0
L_2_r2_TypeX 1
L_3_r2_TypeX 0
L_4_r2_TypeX 0
L_5_r2_TypeX 0
L_6_r2_TypeX 0
L_7_r2_TypeX 0
IF_0_r1_TypeY 1
R_0_r2_TypeY 1
IF_1_r1_TypeY 1
R_1_r2_TypeY 1
IF_2_r1_TypeY 1
R_2_r2_TypeY 1
IF_3_r1_TypeY 1
R_3_r2_TypeY 1
IF_4_r1_TypeY 1
R_4_r2_TypeY 1
IF_5_r1_TypeY 1
R_5_r2_TypeY 1
IF_6_r1_TypeY 1
R_6_r2_TypeY 1
IF_7_r1_TypeY 1
R_7_r2_TypeY 1
OL_2_r1_TypeY 1
OL_0_r1_TypeY 1
OL_3_r1_TypeY 1
OL_1_r1_TypeY 1
OL_6_r1_TypeY 1
OL_4_r1_TypeY 1
OL_7_r1_TypeY 1
OL_5_r1_TypeY 1
L_0_r2_TypeY 1
L_1_r2_TypeY 1
L_2_r2_TypeY 1
L_3_r2_TypeY 1
L_4_r2_TypeY 1
L_5_r2_TypeY 1
L_6_r2_TypeY 1
L_7_r2_TypeY 1
L_0_r1_TypeZ 1
L_1_r1_TypeZ 0
L_2_r1_TypeZ 0
L_3_r1_TypeZ 0
L_4_r1_TypeZ 0
L_5_r1_TypeZ 0
L_6_r1_TypeZ 0
L_7_r1_TypeZ 0
R_0_r1_TypeZ 0
R_1_r1_TypeZ 0
R_2_r1_TypeZ 0
R_3_r1_TypeZ 0
R_4_r1_TypeZ 0
R_5_r1_TypeZ 0
R_6_r1_TypeZ 0
R_7_r1_TypeZ 0
OL_0_r1_TypeZ 0
OL_1_r1_TypeZ 0
OL_2_r1_TypeZ 1
OL_3_r1_TypeZ 0
OL_4_r1_TypeZ 0
OL_5_r1_TypeZ 0
OL_6_r1_TypeZ 0
OL_7_r1_TypeZ 0
IF_0_r2_TypeX 0
R_0_r3_TypeX 0
IF_1_r2_TypeX 0
R_1_r3_TypeX 0
IF_2_r2_TypeX 1
R_2_r3_TypeX 1
IF_3_r2_TypeX 0
R_3_r3_TypeX 0
IF_4_r2_TypeX 0
R_4_r3_TypeX 0
IF_5_r2_TypeX 0
R_5_r3_TypeX 0
IF_6_r2_TypeX 0
R_6_r3_TypeX 0
IF_7_r2_TypeX 0
R_7_r3_TypeX 0
OL_2_r2_TypeX 0
OL_0_r2_TypeX 0
OL_3_r2_TypeX 1
OL_1_r2_TypeX 0
OL_6_r2_TypeX 0
OL_4_r2_TypeX 0
OL_7_r2_TypeX 0
OL_5_r2_TypeX 0
L_0_r3_TypeX 0
L_1_r3_TypeX 0
L_2_r3_TypeX 0
L_3_r3_TypeX 1
L_4_r3_TypeX 0
L_5_r3_TypeX 0
L_6_r3_TypeX 1
L_7_r3_TypeX 0
IF_0_r2_TypeY 1
R_0_r3_TypeY 1
IF_1_r2_TypeY 1
R_1_r3_TypeY 1
IF_2_r2_TypeY 1
R_2_r3_TypeY 1
IF_3_r2_TypeY 1
R_3_r3_TypeY 1
IF_4_r2_TypeY 1
R_4_r3_TypeY 1
IF_5_r2_TypeY 1
R_5_r3_TypeY 1
IF_6_r2_TypeY 1
R_6_r3_TypeY 1
IF_7_r2_TypeY 1
R_7_r3_TypeY 1
OL_2_r2_TypeY 1
OL_0_r2_TypeY 1
OL_3_r2_TypeY 1
OL_1_r2_TypeY 1
OL_6_r2_TypeY 1
OL_4_r2_TypeY 1
OL_7_r2_TypeY 1
OL_5_r2_TypeY 1
L_0_r3_TypeY 1
L_1_r3_TypeY 1
L_2_r3_TypeY 1
L_3_r3_TypeY 1
L_4_r3_TypeY 1
L_5_r3_TypeY 1
L_6_r3_TypeY 1
L_7_r3_TypeY 1
L_0_r2_TypeZ 0
L_1_r2_TypeZ 0
L_2_r2_TypeZ 1
L_3_r2_TypeZ 0
L_4_r2_TypeZ 0
L_5_r2_TypeZ 0
L_6_r2_TypeZ 0
L_7_r2_TypeZ 0
R_0_r2_TypeZ 1
R_1_r2_TypeZ 0
R_2_r2_TypeZ 0
R_3_r2_TypeZ 0
R_4_r2_TypeZ 0
R_5_r2_TypeZ 0
R_6_r2_TypeZ 0
R_7_r2_TypeZ 0
OL_0_r2_TypeZ 0
OL_1_r2_TypeZ 0
OL_2_r2_TypeZ 0
OL_3_r2_TypeZ 1
OL_4_r2_TypeZ 0
OL_5_r2_TypeZ 0
OL_6_r2_TypeZ 0
OL_7_r2_TypeZ 0
IF_0_r3_TypeX 0
R_0_r4_TypeX 0
IF_1_r3_TypeX 0
R_1_r4_TypeX 0
IF_2_r3_TypeX 0
R_2_r4_TypeX 0
IF_3_r3_TypeX 1
R_3_r4_TypeX 1
IF_4_r3_TypeX 0
R_4_r4_TypeX 0
IF_5_r3_TypeX 0
R_5_r4_TypeX 0
IF_6_r3_TypeX 1
R_6_r4_TypeX 1
IF_7_r3_TypeX 0
R_7_r4_TypeX 0
OL_2_r3_TypeX 0
OL_0_r3_TypeX 0
OL_3_r3_TypeX 0
OL_1_r3_TypeX 1
OL_6_r3_TypeX 0
OL_4_r3_TypeX 0
OL_7_r3_TypeX 1
OL_5_r3_TypeX 0
L_0_r4_TypeX 1
L_1_r4_TypeX 1
L_2_r4_TypeX 0
L_3_r4_TypeX 0
L_4_r4_TypeX 0
L_5_r4_TypeX 0
L_6_r4_TypeX 0
L_7_r4_TypeX 1
IF_0_r3_TypeY 1
R_0_r4_TypeY 1
IF_1_r3_TypeY 1
R_1_r4_TypeY 1
IF_2_r3_TypeY 1
R_2_r4_TypeY 0
IF_3_r3_TypeY 1
R_3_r4_TypeY 1
IF_4_r3_TypeY 1
R_4_r4_TypeY 1
IF_5_r3_TypeY 1
R_5_r4_TypeY 1
IF_6_r3_TypeY 1
R_6_r4_TypeY 1
IF_7_r3_TypeY 1
R_7_r4_TypeY 1
OL_2_r3_TypeY 1
OL_0_r3_TypeY 1
OL_3_r3_TypeY 1
OL_1_r3_TypeY 1
OL_6_r3_TypeY 1
OL_4_r3_TypeY 1
OL_7_r3_TypeY 1
OL_5_r3_TypeY 1
L_0_r4_TypeY 1
L_1_r4_TypeY 1
L_2_r4_TypeY 1
L_3_r4_TypeY 1
L_4_r4_TypeY 1
L_5_r4_TypeY 1
L_6_r4_TypeY 1
L_7_r4_TypeY 1
L_0_r3_TypeZ 0
L_1_r3_TypeZ 0
L_2_r3_TypeZ 0
L_3_r3_TypeZ 1
L_4_r3_TypeZ 0
L_5_r3_TypeZ 0
L_6_r3_TypeZ 1
L_7_r3_TypeZ 0
R_0_r3_TypeZ 0
R_1_r3_TypeZ 0
R_2_r3_TypeZ 1
R_3_r3_TypeZ 0
R_4_r3_TypeZ 0
R_5_r3_TypeZ 0
R_6_r3_TypeZ 0
R_7_r3_TypeZ 0
OL_0_r3_TypeZ 0
OL_1_r3_TypeZ 1
OL_2_r3_TypeZ 0
OL_3_r3_TypeZ 0
OL_4_r3_TypeZ 0
OL_5_r3_TypeZ 0
OL_6_r3_TypeZ 0
OL_7_r3_TypeZ 1
IF_0_r4_TypeX 1
R_0_r5_TypeX 1
IF_1_r4_TypeX 1
R_1_r5_TypeX 1
IF_2_r4_TypeX 0
R_2_r5_TypeX 0
IF_3_r4_TypeX 0
R_3_r5_TypeX 0
IF_4_r4_TypeX 0
R_4_r5_TypeX 0
IF_5_r4_TypeX 0
R_5_r5_TypeX 0
IF_6_r4_TypeX 0
R_6_r5_TypeX 0
IF_7_r4_TypeX 1
R_7_r5_TypeX 1
OL_2_r4_TypeX 1
OL_0_r4_TypeX 1
OL_3_r4_TypeX 0
OL_1_r4_TypeX 0
OL_6_r4_TypeX 0
OL_4_r4_TypeX 0
OL_7_r4_TypeX 0
OL_5_r4_TypeX 1
L_0_r5_TypeX 1
L_1_r5_TypeX 1
L_2_r5_TypeX 1
L_3_r5_TypeX 0
L_4_r5_TypeX 1
L_5_r5_TypeX 1
L_6_r5_TypeX 0
L_7_r5_TypeX 0
IF_0_r4_TypeY 1
R_0_r5_TypeY 0
IF_1_r4_TypeY 0
R_1_r5_TypeY 1
IF_2_r4_TypeY 1
R_2_r5_TypeY 1
IF_3_r4_TypeY 1
R_3_r5_TypeY 1
IF_4_r4_TypeY 1
R_4_r5_TypeY 0
IF_5_r4_TypeY 1
R_5_r5_TypeY 0
IF_6_r4_TypeY 1
R_6_r5_TypeY 1
IF_7_r4_TypeY 1
R_7_r5_TypeY 1
OL_2_r4_TypeY 1
OL_0_r4_TypeY 0
OL_3_r4_TypeY 1
OL_1_r4_TypeY 1
OL_6_r4_TypeY 1
OL_4_r4_TypeY 1
OL_7_r4_TypeY 1
OL_5_r4_TypeY 1
L_0_r5_TypeY 0
L_1_r5_TypeY 1
L_2_r5_TypeY 1
L_3_r5_TypeY 1
L_4_r5_TypeY 1
L_5_r5_TypeY 1
L_6_r5_TypeY 1
L_7_r5_TypeY 1
L_0_r4_TypeZ 1
L_1_r4_TypeZ 1
L_2_r4_TypeZ 0
L_3_r4_TypeZ 0
L_4_r4_TypeZ 0
L_5_r4_TypeZ 0
L_6_r4_TypeZ 0
L_7_r4_TypeZ 1
R_0_r4_TypeZ 0
R_1_r4_TypeZ 0
R_2_r4_TypeZ 0
R_3_r4_TypeZ 1
R_4_r4_TypeZ 0
R_5_r4_TypeZ 0
R_6_r4_TypeZ 1
R_7_r4_TypeZ 0
OL_0_r4_TypeZ 0
OL_1_r4_TypeZ 0
OL_2_r4_TypeZ 1
OL_3_r4_TypeZ 0
OL_4_r4_TypeZ 0
OL_5_r4_TypeZ 1
OL_6_r4_TypeZ 0
OL_7_r4_TypeZ 0
IF_0_r5_TypeX 1
R_0_r6_TypeX 1
IF_1_r5_TypeX 1
R_1_r6_TypeX 1
IF_2_r5_TypeX 1
R_2_r6_TypeX 1
IF_3_r5_TypeX 0
R_3_r6_TypeX 0
IF_4_r5_TypeX 1
R_4_r6_TypeX 1
IF_5_r5_TypeX 1
R_5_r6_TypeX 1
IF_6_r5_TypeX 0
R_6_r6_TypeX 0
IF_7_r5_TypeX 0
R_7_r6_TypeX 0
OL_2_r5_TypeX 1
OL_0_r5_TypeX 1
OL_3_r5_TypeX 1
OL_1_r5_TypeX 0
OL_6_r5_TypeX 1
OL_4_r5_TypeX 1
OL_7_r5_TypeX 0
OL_5_r5_TypeX 0
L_0_r6_TypeX 1
L_1_r6_TypeX 0
L_2_r6_TypeX 1
L_3_r6_TypeX 1
L_4_r6_TypeX 1
L_5_r6_TypeX 1
L_6_r6_TypeX 1
L_7_r6_TypeX 1
IF_0_r5_TypeY 0
R_0_r6_TypeY 0
IF_1_r5_TypeY 1
R_1_r6_TypeY 0
IF_2_r5_TypeY 0
R_2_r6_TypeY 1
IF_3_r5_TypeY 1
R_3_r6_TypeY 0
IF_4_r5_TypeY 0
R_4_r6_TypeY 1
IF_5_r5_TypeY 1
R_5_r6_TypeY 0
IF_6_r5_TypeY 1
R_6_r6_TypeY 0
IF_7_r5_TypeY 1
R_7_r6_TypeY 1
OL_2_r5_TypeY 0
OL_0_r5_TypeY 1
OL_3_r5_TypeY 0
OL_1_r5_TypeY 1
OL_6_r5_TypeY 0
OL_4_r5_TypeY 1
OL_7_r5_TypeY 1
OL_5_r5_TypeY 1
L_0_r6_TypeY 1
L_1_r6_TypeY 1
L_2_r6_TypeY 0
L_3_r6_TypeY 0
L_4_r6_TypeY 1
L_5_r6_TypeY 1
L_6_r6_TypeY 0
L_7_r6_TypeY 1
L_0_r5_TypeZ 0
L_1_r5_TypeZ 1
L_2_r5_TypeZ 1
L_3_r5_TypeZ 0
L_4_r5_TypeZ 1
L_5_r5_TypeZ 1
L_6_r5_TypeZ 0
L_7_r5_TypeZ 0
R_0_r5_TypeZ 0
R_1_r5_TypeZ 1
R_2_r5_TypeZ 0
R_3_r5_TypeZ 0
R_4_r5_TypeZ 0
R_5_r5_TypeZ 0
R_6_r5_TypeZ 0
R_7_r5_TypeZ 1
OL_0_r5_TypeZ 1
OL_1_r5_TypeZ 0
OL_2_r5_TypeZ 0
OL_3_r5_TypeZ 0
OL_4_r5_TypeZ 1
OL_5_r5_TypeZ 0
OL_6_r5_TypeZ 0
OL_7_r5_TypeZ 0
IF_0_r6_TypeX 1
R_0_r7_TypeX 1
IF_1_r6_TypeX 0
R_1_r7_TypeX 0
IF_2_r6_TypeX 1
R_2_r7_TypeX 1
IF_3_r6_TypeX 1
R_3_r7_TypeX 1
IF_4_r6_TypeX 1
R_4_r7_TypeX 1
IF_5_r6_TypeX 1
R_5_r7_TypeX 1
IF_6_r6_TypeX 1
R_6_r7_TypeX 1
IF_7_r6_TypeX 1
R_7_r7_TypeX 1
OL_2_r6_TypeX 1
OL_0_r6_TypeX 0
OL_3_r6_TypeX 1
OL_1_r6_TypeX 1
OL_6_r6_TypeX 1
OL_4_r6_TypeX 1
OL_7_r6_TypeX 1
OL_5_r6_TypeX 1
L_0_r7_TypeX 1
L_1_r7_TypeX 1
L_2_r7_TypeX 1
L_3_r7_TypeX 1
L_4_r7_TypeX 1
L_5_r7_TypeX 1
L_6_r7_TypeX 1
L_7_r7_TypeX 1
IF_0_r6_TypeY 1
R_0_r7_TypeY 0
IF_1_r6_TypeY 1
R_1_r7_TypeY 0
IF_2_r6_TypeY 0
R_2_r7_TypeY 0
IF_3_r6_TypeY 0
R_3_r7_TypeY 0
IF_4_r6_TypeY 0
R_4_r7_TypeY 1
IF_5_r6_TypeY 0
R_5_r7_TypeY 1
IF_6_r6_TypeY 0
R_6_r7_TypeY 0
IF_7_r6_TypeY 1
R_7_r7_TypeY 0
OL_2_r6_TypeY 1
OL_0_r6_TypeY 1
OL_3_r6_TypeY 0
OL_1_r6_TypeY 0
OL_6_r6_TypeY 0
OL_4_r6_TypeY 0
OL_7_r6_TypeY 0
OL_5_r6_TypeY 1
L_0_r7_TypeY 1
L_1_r7_TypeY 0
L_2_r7_TypeY 1
L_3_r7_TypeY 0
L_4_r7_TypeY 0
L_5_r7_TypeY 1
L_6_r7_TypeY 0
L_7_r7_TypeY 0
L_0_r6_TypeZ 1
L_1_r6_TypeZ 0
L_2_r6_TypeZ 0
L_3_r6_TypeZ 0
L_4_r6_TypeZ 1
L_5_r6_TypeZ 1
L_6_r6_TypeZ 0
L_7_r6_TypeZ 1
R_0_r6_TypeZ 0
R_1_r6_TypeZ 0
R_2_r6_TypeZ 1
R_3_r6_TypeZ 0
R_4_r6_TypeZ 1
R_5_r6_TypeZ 0
R_6_r6_TypeZ 0
R_7_r6_TypeZ 0
OL_0_r6_TypeZ 0
OL_1_r6_TypeZ 0
OL_2_r6_TypeZ 1
OL_3_r6_TypeZ 0
OL_4_r6_TypeZ 0
OL_5_r6_TypeZ 1
OL_6_r6_TypeZ 0
OL_7_r6_TypeZ 0
IF_0_r7_TypeX 1
R_0_r8_TypeX 1
IF_1_r7_TypeX 1
R_1_r8_TypeX 1
IF_2_r7_TypeX 1
R_2_r8_TypeX 1
IF_3_r7_TypeX 1
R_3_r8_TypeX 1
IF_4_r7_TypeX 1
R_4_r8_TypeX 1
IF_5_r7_TypeX 1
R_5_r8_TypeX 1
IF_6_r7_TypeX 1
R_6_r8_TypeX 1
IF_7_r7_TypeX 1
R_7_r8_TypeX 1
OL_2_r7_TypeX 1
OL_0_r7_TypeX 1
OL_3_r7_TypeX 1
OL_1_r7_TypeX 1
OL_6_r7_TypeX 1
OL_4_r7_TypeX 1
OL_7_r7_TypeX 1
OL_5_r7_TypeX 1
L_0_r8_TypeX 1
L_1_r8_TypeX 1
L_2_r8_TypeX 1
L_3_r8_TypeX 1
L_4_r8_TypeX 1
L_5_r8_TypeX 1
L_6_r8_TypeX 1
L_7_r8_TypeX 1
IF_0_r7_TypeY 1
R_0_r8_TypeY 0
IF_1_r7_TypeY 0
R_1_r8_TypeY 0
IF_2_r7_TypeY 1
R_2_r8_TypeY 0
IF_3_r7_TypeY 0
R_3_r8_TypeY 0
IF_4_r7_TypeY 0
R_4_r8_TypeY 0
IF_5_r7_TypeY 0
R_5_r8_TypeY 1
IF_6_r7_TypeY 0
R_6_r8_TypeY 0
IF_7_r7_TypeY 0
R_7_r8_TypeY 0
OL_2_r7_TypeY 1
OL_0_r7_TypeY 0
OL_3_r7_TypeY 1
OL_1_r7_TypeY 0
OL_6_r7_TypeY 0
OL_4_r7_TypeY 0
OL_7_r7_TypeY 0
OL_5_r7_TypeY 0
L_0_r8_TypeY 0
L_1_r8_TypeY 0
L_2_r8_TypeY 1
L_3_r8_TypeY 1
L_4_r8_TypeY 0
L_5_r8_TypeY 0
L_6_r8_TypeY 0
L_7_r8_TypeY 0
L_0_r7_TypeZ 1
L_1_r7_TypeZ 0
L_2_r7_TypeZ 1
L_3_r7_TypeZ 0
L_4_r7_TypeZ 0
L_5_r7_TypeZ 1
L_6_r7_TypeZ 0
L_7_r7_TypeZ 0
R_0_r7_TypeZ 0
R_1_r7_TypeZ 0
R_2_r7_TypeZ 0
R_3_r7_TypeZ 0
R_4_r7_TypeZ 1
R_5_r7_TypeZ 1
R_6_r7_TypeZ 0
R_7_r7_TypeZ 0
OL_0_r7_TypeZ 0
OL_1_r7_TypeZ 0
OL_2_r7_TypeZ 1
OL_3_r7_TypeZ 1
OL_4_r7_TypeZ 0
OL_5_r7_TypeZ 0
OL_6_r7_TypeZ 0
OL_7_r7_TypeZ 0
IF_0_r8_TypeX 1
R_0_r9_TypeX 1
IF_1_r8_TypeX 1
R_1_r9_TypeX 1
IF_2_r8_TypeX 1
R_2_r9_TypeX 1
IF_3_r8_TypeX 1
R_3_r9_TypeX 1
IF_4_r8_TypeX 1
R_4_r9_TypeX 1
IF_5_r8_TypeX 1
R_5_r9_TypeX 1
IF_6_r8_TypeX 1
R_6_r9_TypeX 1
IF_7_r8_TypeX 1
R_7_r9_TypeX 1
OL_2_r8_TypeX 1
OL_0_r8_TypeX 1
OL_3_r8_TypeX 1
OL_1_r8_TypeX 1
OL_6_r8_TypeX 1
OL_4_r8_TypeX 1
OL_7_r8_TypeX 1
OL_5_r8_TypeX 1
L_0_r9_TypeX 1
L_1_r9_TypeX 1
L_2_r9_TypeX 1
L_3_r9_TypeX 1
L_4_r9_TypeX 1
L_5_r9_TypeX 1
L_6_r9_TypeX 1
L_7_r9_TypeX 1
IF_0_r8_TypeY 0
R_0_r9_TypeY 0
IF_1_r8_TypeY 0
R_1_r9_TypeY 0
IF_2_r8_TypeY 1
R_2_r9_TypeY 0
IF_3_r8_TypeY 0
R_3_r9_TypeY 1
IF_4_r8_TypeY 0
R_4_r9_TypeY 0
IF_5_r8_TypeY 0
R_5_r9_TypeY 0
IF_6_r8_TypeY 0
R_6_r9_TypeY 0
IF_7_r8_TypeY 0
R_7_r9_TypeY 0
OL_2_r8_TypeY 0
OL_0_r8_TypeY 0
OL_3_r8_TypeY 1
OL_1_r8_TypeY 0
OL_6_r8_TypeY 0
OL_4_r8_TypeY 0
OL_7_r8_TypeY 0
OL_5_r8_TypeY 0
L_0_r9_TypeY 0
L_1_r9_TypeY 0
L_2_r9_TypeY 0
L_3_r9_TypeY 1
L_4_r9_TypeY 0
L_5_r9_TypeY 0
L_6_r9_TypeY 0
L_7_r9_TypeY 0
L_0_r8_TypeZ 0
L_1_r8_TypeZ 0
L_2_r8_TypeZ 1
L_3_r8_TypeZ 1
L_4_r8_TypeZ 0
L_5_r8_TypeZ 0
L_6_r8_TypeZ 0
L_7_r8_TypeZ 0
R_0_r8_TypeZ 0
R_1_r8_TypeZ 0
R_2_r8_TypeZ 0
R_3_r8_TypeZ 0
R_4_r8_TypeZ 0
R_5_r8_TypeZ 1
R_6_r8_TypeZ 0
R_7_r8_TypeZ 0
OL_0_r8_TypeZ 0
OL_1_r8_TypeZ 0
OL_2_r8_TypeZ 0
OL_3_r8_TypeZ 1
OL_4_r8_TypeZ 0
OL_5_r8_TypeZ 0
OL_6_r8_TypeZ 0
OL_7_r8_TypeZ 0
IF_0_r9_TypeX 1
R_0_r10_TypeX 1
IF_1_r9_TypeX 1
R_1_r10_TypeX 1
IF_2_r9_TypeX 1
R_2_r10_TypeX 1
IF_3_r9_TypeX 1
R_3_r10_TypeX 1
IF_4_r9_TypeX 1
R_4_r10_TypeX 1
IF_5_r9_TypeX 1
R_5_r10_TypeX 1
IF_6_r9_TypeX 1
R_6_r10_TypeX 1
IF_7_r9_TypeX 1
R_7_r10_TypeX 1
OL_2_r9_TypeX 1
OL_0_r9_TypeX 1
OL_3_r9_TypeX 1
OL_1_r9_TypeX 1
OL_6_r9_TypeX 1
OL_4_r9_TypeX 1
OL_7_r9_TypeX 1
OL_5_r9_TypeX 1
L_0_r10_TypeX 1
L_1_r10_TypeX 1
L_2_r10_TypeX 1
L_3_r10_TypeX 1
L_4_r10_TypeX 1
L_5_r10_TypeX 1
L_6_r10_TypeX 1
L_7_r10_TypeX 1
IF_0_r9_TypeY 0
R_0_r10_TypeY 0
IF_1_r9_TypeY 0
R_1_r10_TypeY 0
IF_2_r9_TypeY 0
R_2_r10_TypeY 0
IF_3_r9_TypeY 1
R_3_r10_TypeY 0
IF_4_r9_TypeY 0
R_4_r10_TypeY 0
IF_5_r9_TypeY 0
R_5_r10_TypeY 0
IF_6_r9_TypeY 0
R_6_r10_TypeY 0
IF_7_r9_TypeY 0
R_7_r10_TypeY 0
OL_2_r9_TypeY 0
OL_0_r9_TypeY 0
OL_3_r9_TypeY 0
OL_1_r9_TypeY 1
OL_6_r9_TypeY 0
OL_4_r9_TypeY 0
OL_7_r9_TypeY 0
OL_5_r9_TypeY 0
L_0_r10_TypeY 0
L_1_r10_TypeY 1
L_2_r10_TypeY 0
L_3_r10_TypeY 0
L_4_r10_TypeY 0
L_5_r10_TypeY 0
L_6_r10_TypeY 0
L_7_r10_TypeY 0
L_0_r9_TypeZ 0
L_1_r9_TypeZ 0
L_2_r9_TypeZ 0
L_3_r9_TypeZ 1
L_4_r9_TypeZ 0
L_5_r9_TypeZ 0
L_6_r9_TypeZ 0
L_7_r9_TypeZ 0
R_0_r9_TypeZ 0
R_1_r9_TypeZ 0
R_2_r9_TypeZ 0
R_3_r9_TypeZ 1
R_4_r9_TypeZ 0
R_5_r9_TypeZ 0
R_6_r9_TypeZ 0
R_7_r9_TypeZ 0
OL_0_r9_TypeZ 0
OL_1_r9_TypeZ 1
OL_2_r9_TypeZ 0
OL_3_r9_TypeZ 0
OL_4_r9_TypeZ 0
OL_5_r9_TypeZ 0
OL_6_r9_TypeZ 0
OL_7_r9_TypeZ 0
IF_0_r10_TypeX 1
R_0_r11_TypeX 1
IF_1_r10_TypeX 1
R_1_r11_TypeX 1
IF_2_r10_TypeX 1
R_2_r11_TypeX 1
IF_3_r10_TypeX 1
R_3_r11_TypeX 1
IF_4_r10_TypeX 1
R_4_r11_TypeX 1
IF_5_r10_TypeX 1
R_5_r11_TypeX 1
IF_6_r10_TypeX 1
R_6_r11_TypeX 1
IF_7_r10_TypeX 1
R_7_r11_TypeX 1
OL_2_r10_TypeX 1
OL_0_r10_TypeX 1
OL_3_r10_TypeX 1
OL_1_r10_TypeX 1
OL_6_r10_TypeX 1
OL_4_r10_TypeX 1
OL_7_r10_TypeX 1
OL_5_r10_TypeX 1
L_0_r11_TypeX 1
L_1_r11_TypeX 1
L_2_r11_TypeX 1
L_3_r11_TypeX 1
L_4_r11_TypeX 1
L_5_r11_TypeX 1
L_6_r11_TypeX 1
L_7_r11_TypeX 1
IF_0_r10_TypeY 0
R_0_r11_TypeY 0
IF_1_r10_TypeY 0
R_1_r11_TypeY 1
IF_2_r10_TypeY 0
R_2_r11_TypeY 0
IF_3_r10_TypeY 0
R_3_r11_TypeY 0
IF_4_r10_TypeY 0
R_4_r11_TypeY 0
IF_5_r10_TypeY 0
R_5_r11_TypeY 0
IF_6_r10_TypeY 0
R_6_r11_TypeY 0
IF_7_r10_TypeY 0
R_7_r11_TypeY 0
OL_2_r10_TypeY 0
OL_0_r10_TypeY 0
OL_3_r10_TypeY 0
OL_1_r10_TypeY 0
OL_6_r10_TypeY 0
OL_4_r10_TypeY 0
OL_7_r10_TypeY 0
OL_5_r10_TypeY 0
L_0_r11_TypeY 0
L_1_r11_TypeY 0
L_2_r11_TypeY 0
L_3_r11_TypeY 0
L_4_r11_TypeY 0
L_5_r11_TypeY 0
L_6_r11_TypeY 0
L_7_r11_TypeY 0
L_0_r10_TypeZ 0
L_1_r10_TypeZ 1
L_2_r10_TypeZ 0
L_3_r10_TypeZ 0
L_4_r10_TypeZ 0
L_5_r10_TypeZ 0
L_6_r10_TypeZ 0
L_7_r10_TypeZ 0
R_0_r10_TypeZ 0
R_1_r10_TypeZ 0
R_2_r10_TypeZ 0
R_3_r10_TypeZ 0
R_4_r10_TypeZ 0
R_5_r10_TypeZ 0
R_6_r10_TypeZ 0
R_7_r10_TypeZ 0
OL_0_r10_TypeZ 0
OL_1_r10_TypeZ 0
OL_2_r10_TypeZ 0
OL_3_r10_TypeZ 0
OL_4_r10_TypeZ 0
OL_5_r10_TypeZ 0
OL_6_r10_TypeZ 0
OL_7_r10_TypeZ 0
L_0_r11_TypeZ 0
L_1_r11_TypeZ 0
L_2_r11_TypeZ 0
L_3_r11_TypeZ 0
L_4_r11_TypeZ 0
L_5_r11_TypeZ 0
L_6_r11_TypeZ 0
L_7_r11_TypeZ 0
R_0_r11_TypeZ 0
R_1_r11_TypeZ 1
R_2_r11_TypeZ 0
R_3_r11_TypeZ 0
R_4_r11_TypeZ 0
R_5_r11_TypeZ 0
R_6_r11_TypeZ 0
R_7_r11_TypeZ 0
